Minimize
 obj: 0
Subject to

\true constraints
   69 X1
 +    63 X2
 +    75 X3
 +    75 X4
 +    85 X5
 +    70 X6
 +    84 X7
 +    99 X8
 +    81 X9
 +    85 X10
< 393.000000

\multiple objectives
 -  72 X1
 -    65 X2
 -    78 X3
 -    64 X4
 -    92 X5
 -    67 X6
 -    98 X7
 -    96 X8
 -    62 X9
 -    97 X10
< 1
 -  62 X1
 -   100 X2
 -    98 X3
 -    75 X4
 -    67 X5
 -   100 X6
 -    76 X7
 -    79 X8
 -    91 X9
 -    63 X10
< 2
 -  87 X1
 -    77 X2
 -    61 X3
 -    74 X4
 -    91 X5
 -    60 X6
 -    94 X7
 -    82 X8
 -    61 X9
 -    76 X10
< 3
 -  96 X1
 -    99 X2
 -    63 X3
 -    69 X4
 -    82 X5
 -    84 X6
 -    72 X7
 -    68 X8
 -    82 X9
 -    94 X10
< 4
 -  87 X1
 -    97 X2
 -    68 X3
 -    66 X4
 -    96 X5
 -    82 X6
 -    82 X7
 -    86 X8
 -    93 X9
 -    64 X10
< 5
 -  87 X1
 -    81 X2
 -    69 X3
 -    96 X4
 -    81 X5
 -    86 X6
 -    93 X7
 -    94 X8
 -    97 X9
 -    97 X10
< 6
 -  63 X1
 -    77 X2
 -    97 X3
 -    60 X4
 -    68 X5
 -    75 X6
 -    86 X7
 -    67 X8
 -    63 X9
 -    64 X10
< 7
 -  86 X1
 -    95 X2
 -    94 X3
 -    76 X4
 -    86 X5
 -    75 X6
 -    69 X7
 -    95 X8
 -    88 X9
 -    81 X10
< 8
 -  74 X1
 -    69 X2
 -    77 X3
 -    78 X4
 -    79 X5
 -    63 X6
 -    77 X7
 -    82 X8
 -    94 X9
 -    66 X10
< 9
 -  83 X1
 -    77 X2
 -    82 X3
 -    79 X4
 -    97 X5
 -    87 X6
 -    92 X7
 -    62 X8
 -    79 X9
 -    71 X10
< 10



BINARY
X1
X2
X3
X4
X5
X6
X7
X8
X9
X10
END
